p edge 40 179 20
v 3 5 7 23
v 1 29
v 1 12
v 2 8 16
v 1 25
v 1 36
v 1 18
v 3 10 37 38
v 2 27 31
v 3 30 32 39
v 5 2 6 17 21 34
v 2 13 40
v 4 4 11 20 22
v 1 3
v 2 1 14
v 3 15 24 28
v 1 26
v 1 19
v 1 33
v 2 9 35
e 1 4
e 1 6
e 1 9
e 1 11
e 1 20
e 1 21
e 1 31
e 1 33
e 1 37
e 1 38
e 2 9
e 2 14
e 2 15
e 2 19
e 2 23
e 2 25
e 2 27
e 2 30
e 2 31
e 2 34
e 2 40
e 3 6
e 3 8
e 3 11
e 3 19
e 3 22
e 3 29
e 3 30
e 3 33
e 3 40
e 4 13
e 4 14
e 4 18
e 4 21
e 4 22
e 4 26
e 4 29
e 4 37
e 5 8
e 5 16
e 5 24
e 5 26
e 6 8
e 6 11
e 6 13
e 6 14
e 6 15
e 6 21
e 6 23
e 6 31
e 6 37
e 6 40
e 7 8
e 7 10
e 7 11
e 7 12
e 7 16
e 7 23
e 7 37
e 8 11
e 8 15
e 8 22
e 8 28
e 8 29
e 8 31
e 8 33
e 8 34
e 8 35
e 8 39
e 8 40
e 9 20
e 9 22
e 9 28
e 9 33
e 10 13
e 10 23
e 10 28
e 10 32
e 10 33
e 10 40
e 11 12
e 11 17
e 11 18
e 11 19
e 11 22
e 11 29
e 11 35
e 11 39
e 12 13
e 12 19
e 12 23
e 12 28
e 12 32
e 12 34
e 12 40
e 13 16
e 13 29
e 13 33
e 13 37
e 13 38
e 14 16
e 14 22
e 14 29
e 14 33
e 14 35
e 15 24
e 15 27
e 15 30
e 15 32
e 16 20
e 16 25
e 16 30
e 16 38
e 17 23
e 17 24
e 17 27
e 17 28
e 17 31
e 17 33
e 18 19
e 18 24
e 18 25
e 18 38
e 19 31
e 19 32
e 20 21
e 20 32
e 20 35
e 21 27
e 21 28
e 21 33
e 22 25
e 22 30
e 22 33
e 22 37
e 23 29
e 23 31
e 23 37
e 23 39
e 24 26
e 24 29
e 24 30
e 24 33
e 25 26
e 25 29
e 25 33
e 26 29
e 26 33
e 26 36
e 26 37
e 26 38
e 27 31
e 27 35
e 27 37
e 27 38
e 28 33
e 28 34
e 28 35
e 29 30
e 29 32
e 29 34
e 29 37
e 29 40
e 30 32
e 30 36
e 30 37
e 30 39
e 31 32
e 31 33
e 31 37
e 31 38
e 31 40
e 32 37
e 32 38
e 32 39
e 33 37
e 33 39
e 34 35
e 34 36
